(declare-rel loop ((Array Int Int) Int (Array Int Int) Int (Array Int Int) Int Int Int ))
(declare-rel exit ())
(declare-var i Int )
(declare-var i1 Int )
(declare-var i2 Int )
(declare-var i3 Int )
(declare-var i4 Int )
(declare-var i5 Int )
(declare-var i6 Int )
(declare-var i7 Int )
(declare-var i8 Int )
(declare-var a_ind Int )
(declare-var a_ind1 Int )
(declare-var a_ind2 Int )
(declare-var a_ind3 Int )
(declare-var a_ind4 Int )
(declare-var a_ind5 Int )
(declare-var a_ind6 Int )
(declare-var a_ind7 Int )
(declare-var a_ind8 Int )
(declare-var b_ind Int )
(declare-var b_ind1 Int )
(declare-var b_ind2 Int )
(declare-var b_ind3 Int )
(declare-var b_ind4 Int )
(declare-var b_ind5 Int )
(declare-var b_ind6 Int )
(declare-var b_ind7 Int )
(declare-var b_ind8 Int )
(declare-var c_ind Int )
(declare-var c_ind1 Int )
(declare-var c_ind2 Int )
(declare-var c_ind3 Int )
(declare-var c_ind4 Int )
(declare-var c_ind5 Int )
(declare-var c_ind6 Int )
(declare-var c_ind7 Int )
(declare-var c_ind8 Int )
(declare-var index_limit Int )
(declare-var a_i Int )
(declare-var a_i1 Int )
(declare-var a_i2 Int )
(declare-var a_i3 Int )
(declare-var a_i4 Int )
(declare-var a_i5 Int )
(declare-var a_i6 Int )
(declare-var a_i7 Int )
(declare-var b_i Int )
(declare-var b_i1 Int )
(declare-var b_i2 Int )
(declare-var b_i3 Int )
(declare-var b_i4 Int )
(declare-var b_i5 Int )
(declare-var b_i6 Int )
(declare-var b_i7 Int )
(declare-var c_i Int )
(declare-var c_i1 Int )
(declare-var c_i2 Int )
(declare-var c_i3 Int )
(declare-var c_i4 Int )
(declare-var c_i5 Int )
(declare-var c_i6 Int )
(declare-var c_i7 Int )
(declare-var count Int )
(declare-var a_array (Array Int Int) )
(declare-var a_array1 (Array Int Int) )
(declare-var a_array2 (Array Int Int) )
(declare-var a_array3 (Array Int Int) )
(declare-var a_array4 (Array Int Int) )
(declare-var a_array5 (Array Int Int) )
(declare-var a_array6 (Array Int Int) )
(declare-var a_array7 (Array Int Int) )
(declare-var a_array8 (Array Int Int) )
(declare-var b_array (Array Int Int) )
(declare-var c_array (Array Int Int) )

(rule (=> 
	(and 
		(= i 0)
	)
	(loop a_array a_ind b_array b_ind c_array c_ind i count)
))
(rule (=> 
	(and 
		(loop a_array a_ind b_array b_ind c_array c_ind i count)
		(< i (* count 8))
		
		(= b_i (select b_array b_ind))
		(= c_i (select c_array c_ind))
		(= a_i (+ b_i c_i))
		(= a_array1 (store a_array a_ind a_i))
		(= a_ind1 (+ a_ind (* 1 4)))
		(= b_ind1 (+ b_ind (* 1 4)))
		(= c_ind1 (+ c_ind (* 1 4)))

		(= b_i1 (select b_array b_ind1))
		(= c_i1 (select c_array c_ind1))
		(= a_i1 (+ b_i1 c_i1))
		(= a_array2 (store a_array1 a_ind1 a_i1))
		(= a_ind2 (+ a_ind1 (* 1 4)))
		(= b_ind2 (+ b_ind1 (* 1 4)))
		(= c_ind2 (+ c_ind1 (* 1 4)))

		(= b_i2 (select b_array b_ind2))
		(= c_i2 (select c_array c_ind2))
		(= a_i2 (+ b_i2 c_i2))
		(= a_array3 (store a_array2 a_ind2 a_i2))
		(= a_ind3 (+ a_ind2 (* 1 4)))
		(= b_ind3 (+ b_ind2 (* 1 4)))
		(= c_ind3 (+ c_ind2 (* 1 4)))

		(= b_i3 (select b_array b_ind3))
		(= c_i3 (select c_array c_ind3))
		(= a_i3 (+ b_i3 c_i3))
		(= a_array4 (store a_array3 a_ind3 a_i3))
		(= a_ind4 (+ a_ind3 (* 1 4)))
		(= b_ind4 (+ b_ind3 (* 1 4)))
		(= c_ind4 (+ c_ind3 (* 1 4)))

		(= b_i4 (select b_array b_ind4))
		(= c_i4 (select c_array c_ind4))
		(= a_i4 (+ b_i4 c_i4))
		(= a_array5 (store a_array4 a_ind4 a_i4))
		(= a_ind5 (+ a_ind4 (* 1 4)))
		(= b_ind5 (+ b_ind4 (* 1 4)))
		(= c_ind5 (+ c_ind4 (* 1 4)))

		(= b_i5 (select b_array b_ind5))
		(= c_i5 (select c_array c_ind5))
		(= a_i5 (+ b_i5 c_i5))
		(= a_array6 (store a_array5 a_ind5 a_i5))
		(= a_ind6 (+ a_ind5 (* 1 4)))
		(= b_ind6 (+ b_ind5 (* 1 4)))
		(= c_ind6 (+ c_ind5 (* 1 4)))

		(= b_i6 (select b_array b_ind6))
		(= c_i6 (select c_array c_ind6))
		(= a_i6 (+ b_i6 c_i6))
		(= a_array7 (store a_array6 a_ind6 a_i6))
		(= a_ind7 (+ a_ind6 (* 1 4)))
		(= b_ind7 (+ b_ind6 (* 1 4)))
		(= c_ind7 (+ c_ind6 (* 1 4)))

		(= b_i7 (select b_array b_ind7))
		(= c_i7 (select c_array c_ind7))
		(= a_i7 (+ b_i7 c_i7))
		(= a_array8 (store a_array7 a_ind7 a_i7))
		(= a_ind8 (+ a_ind7 (* 1 4)))
		(= b_ind8 (+ b_ind7 (* 1 4)))
		(= c_ind8 (+ c_ind7 (* 1 4)))
	)
	(loop a_array8 a_ind8 b_array b_ind8 c_array c_ind8 (+ i 8) count)
))
(rule (=> 
	(and 
		(loop a_array a_ind b_array b_ind c_array c_ind i count)
		(not (< i (* count 8)))
		;(<= 0 i1)
		;(< i1 (* count 8))
		;(not (< (select b_array i1) (select a_array i1)))
	)
	exit
))
(query exit)